50

100 32 176
98 8 255
98 47 180
97 39 283
95 5 193
94 32 326
90 38 171
90 15 267
89 10 283
86 33 301
85 42 254
83 18 155
81 37 305
79 24 333
79 11 212
74 6 325
72 17 225
72 1 174
71 4 257
68 11 206
67 22 354
65 20 353
64 18 158
64 20 202
62 29 357
59 1 288
58 14 345
56 12 233
55 10 245
55 10 328
54 13 323
51 16 360
51 16 313
50 21 177
47 1 187
46 20 231
45 23 306
44 5 179
43 3 154
40 16 317
36 13 251
34 16 190
33 11 199
31 12 359
29 12 294
28 10 337
27 1 333
27 2 228
26 8 332
21 1 322
